p cnf 0 0
c K couleurs
53 55 57 59 61 63 65 67 69 71 73 75 77 79 81 83 85 87 89 91 93 95 97 99 101 103 105 107 109 111 113 115 117 119 121 123 125 127 129 131 133 135 137 139 141 143 145 147 149 151 153 155 0
54 56 58 60 62 64 66 68 70 72 74 76 78 80 82 84 86 88 90 92 94 96 98 100 102 104 106 108 110 112 114 116 118 120 122 124 126 128 130 132 134 136 138 140 142 144 146 148 150 152 154 156 0
1 0
-2 0
3 0
-4 0
5 0
-6 0
7 0
-8 0
9 0
-10 0
11 0
-12 0
13 0
-14 0
15 0
-16 0
17 0
-18 0
19 0
-20 0
21 0
-22 0
23 0
-24 0
25 0
-26 0
27 0
-28 0
29 0
-30 0
31 0
-32 0
33 0
-34 0
35 0
-36 0
37 0
-38 0
39 0
-40 0
41 0
-42 0
43 0
-44 0
45 0
-46 0
47 0
-48 0
49 0
-50 0
51 0
-52 0
-54 0
c 1 color par vertex et au plus 1
53 54 0
-54 -53 0
55 56 0
-56 -55 0
57 58 0
-58 -57 0
59 60 0
-60 -59 0
61 62 0
-62 -61 0
63 64 0
-64 -63 0
65 66 0
-66 -65 0
67 68 0
-68 -67 0
69 70 0
-70 -69 0
71 72 0
-72 -71 0
73 74 0
-74 -73 0
75 76 0
-76 -75 0
77 78 0
-78 -77 0
79 80 0
-80 -79 0
81 82 0
-82 -81 0
83 84 0
-84 -83 0
85 86 0
-86 -85 0
87 88 0
-88 -87 0
89 90 0
-90 -89 0
91 92 0
-92 -91 0
93 94 0
-94 -93 0
95 96 0
-96 -95 0
97 98 0
-98 -97 0
99 100 0
-100 -99 0
101 102 0
-102 -101 0
103 104 0
-104 -103 0
105 106 0
-106 -105 0
107 108 0
-108 -107 0
109 110 0
-110 -109 0
111 112 0
-112 -111 0
113 114 0
-114 -113 0
115 116 0
-116 -115 0
117 118 0
-118 -117 0
119 120 0
-120 -119 0
121 122 0
-122 -121 0
123 124 0
-124 -123 0
125 126 0
-126 -125 0
127 128 0
-128 -127 0
129 130 0
-130 -129 0
131 132 0
-132 -131 0
133 134 0
-134 -133 0
135 136 0
-136 -135 0
137 138 0
-138 -137 0
139 140 0
-140 -139 0
141 142 0
-142 -141 0
143 144 0
-144 -143 0
145 146 0
-146 -145 0
147 148 0
-148 -147 0
149 150 0
-150 -149 0
151 152 0
-152 -151 0
153 154 0
-154 -153 0
155 156 0
-156 -155 0
c gc coresp to G
-53 -56 157 0
-53 -56 -158 1 0
-53 -56 158 -1 0
-54 -55 157 0
-54 -55 -158 1 0
-54 -55 158 -1 0
-55 -58 157 0
-55 -58 -158 2 0
-55 -58 158 -2 0
-56 -57 157 0
-56 -57 -158 2 0
-56 -57 158 -2 0
-57 -60 157 0
-57 -60 -158 3 0
-57 -60 158 -3 0
-58 -59 157 0
-58 -59 -158 3 0
-58 -59 158 -3 0
-59 -62 157 0
-59 -62 -158 4 0
-59 -62 158 -4 0
-60 -61 157 0
-60 -61 -158 4 0
-60 -61 158 -4 0
-61 -64 157 0
-61 -64 -158 5 0
-61 -64 158 -5 0
-62 -63 157 0
-62 -63 -158 5 0
-62 -63 158 -5 0
-63 -66 157 0
-63 -66 -158 6 0
-63 -66 158 -6 0
-64 -65 157 0
-64 -65 -158 6 0
-64 -65 158 -6 0
-65 -68 157 0
-65 -68 -158 7 0
-65 -68 158 -7 0
-66 -67 157 0
-66 -67 -158 7 0
-66 -67 158 -7 0
-67 -70 157 0
-67 -70 -158 8 0
-67 -70 158 -8 0
-68 -69 157 0
-68 -69 -158 8 0
-68 -69 158 -8 0
-69 -72 157 0
-69 -72 -158 9 0
-69 -72 158 -9 0
-70 -71 157 0
-70 -71 -158 9 0
-70 -71 158 -9 0
-71 -74 157 0
-71 -74 -158 10 0
-71 -74 158 -10 0
-72 -73 157 0
-72 -73 -158 10 0
-72 -73 158 -10 0
-73 -76 157 0
-73 -76 -158 11 0
-73 -76 158 -11 0
-74 -75 157 0
-74 -75 -158 11 0
-74 -75 158 -11 0
-75 -78 157 0
-75 -78 -158 12 0
-75 -78 158 -12 0
-76 -77 157 0
-76 -77 -158 12 0
-76 -77 158 -12 0
-77 -80 157 0
-77 -80 -158 13 0
-77 -80 158 -13 0
-78 -79 157 0
-78 -79 -158 13 0
-78 -79 158 -13 0
-79 -82 157 0
-79 -82 -158 14 0
-79 -82 158 -14 0
-80 -81 157 0
-80 -81 -158 14 0
-80 -81 158 -14 0
-81 -84 157 0
-81 -84 -158 15 0
-81 -84 158 -15 0
-82 -83 157 0
-82 -83 -158 15 0
-82 -83 158 -15 0
-83 -86 157 0
-83 -86 -158 16 0
-83 -86 158 -16 0
-84 -85 157 0
-84 -85 -158 16 0
-84 -85 158 -16 0
-85 -88 157 0
-85 -88 -158 17 0
-85 -88 158 -17 0
-86 -87 157 0
-86 -87 -158 17 0
-86 -87 158 -17 0
-87 -90 157 0
-87 -90 -158 18 0
-87 -90 158 -18 0
-88 -89 157 0
-88 -89 -158 18 0
-88 -89 158 -18 0
-89 -92 157 0
-89 -92 -158 19 0
-89 -92 158 -19 0
-90 -91 157 0
-90 -91 -158 19 0
-90 -91 158 -19 0
-91 -94 157 0
-91 -94 -158 20 0
-91 -94 158 -20 0
-92 -93 157 0
-92 -93 -158 20 0
-92 -93 158 -20 0
-93 -96 157 0
-93 -96 -158 21 0
-93 -96 158 -21 0
-94 -95 157 0
-94 -95 -158 21 0
-94 -95 158 -21 0
-95 -98 157 0
-95 -98 -158 22 0
-95 -98 158 -22 0
-96 -97 157 0
-96 -97 -158 22 0
-96 -97 158 -22 0
-97 -100 157 0
-97 -100 -158 23 0
-97 -100 158 -23 0
-98 -99 157 0
-98 -99 -158 23 0
-98 -99 158 -23 0
-99 -102 157 0
-99 -102 -158 24 0
-99 -102 158 -24 0
-100 -101 157 0
-100 -101 -158 24 0
-100 -101 158 -24 0
-101 -104 157 0
-101 -104 -158 25 0
-101 -104 158 -25 0
-102 -103 157 0
-102 -103 -158 25 0
-102 -103 158 -25 0
-103 -106 157 0
-103 -106 -158 26 0
-103 -106 158 -26 0
-104 -105 157 0
-104 -105 -158 26 0
-104 -105 158 -26 0
-105 -108 157 0
-105 -108 -158 27 0
-105 -108 158 -27 0
-106 -107 157 0
-106 -107 -158 27 0
-106 -107 158 -27 0
-107 -110 157 0
-107 -110 -158 28 0
-107 -110 158 -28 0
-108 -109 157 0
-108 -109 -158 28 0
-108 -109 158 -28 0
-109 -112 157 0
-109 -112 -158 29 0
-109 -112 158 -29 0
-110 -111 157 0
-110 -111 -158 29 0
-110 -111 158 -29 0
-111 -114 157 0
-111 -114 -158 30 0
-111 -114 158 -30 0
-112 -113 157 0
-112 -113 -158 30 0
-112 -113 158 -30 0
-113 -116 157 0
-113 -116 -158 31 0
-113 -116 158 -31 0
-114 -115 157 0
-114 -115 -158 31 0
-114 -115 158 -31 0
-115 -118 157 0
-115 -118 -158 32 0
-115 -118 158 -32 0
-116 -117 157 0
-116 -117 -158 32 0
-116 -117 158 -32 0
-117 -120 157 0
-117 -120 -158 33 0
-117 -120 158 -33 0
-118 -119 157 0
-118 -119 -158 33 0
-118 -119 158 -33 0
-119 -122 157 0
-119 -122 -158 34 0
-119 -122 158 -34 0
-120 -121 157 0
-120 -121 -158 34 0
-120 -121 158 -34 0
-121 -124 157 0
-121 -124 -158 35 0
-121 -124 158 -35 0
-122 -123 157 0
-122 -123 -158 35 0
-122 -123 158 -35 0
-123 -126 157 0
-123 -126 -158 36 0
-123 -126 158 -36 0
-124 -125 157 0
-124 -125 -158 36 0
-124 -125 158 -36 0
-125 -128 157 0
-125 -128 -158 37 0
-125 -128 158 -37 0
-126 -127 157 0
-126 -127 -158 37 0
-126 -127 158 -37 0
-127 -130 157 0
-127 -130 -158 38 0
-127 -130 158 -38 0
-128 -129 157 0
-128 -129 -158 38 0
-128 -129 158 -38 0
-129 -132 157 0
-129 -132 -158 39 0
-129 -132 158 -39 0
-130 -131 157 0
-130 -131 -158 39 0
-130 -131 158 -39 0
-131 -134 157 0
-131 -134 -158 40 0
-131 -134 158 -40 0
-132 -133 157 0
-132 -133 -158 40 0
-132 -133 158 -40 0
-133 -136 157 0
-133 -136 -158 41 0
-133 -136 158 -41 0
-134 -135 157 0
-134 -135 -158 41 0
-134 -135 158 -41 0
-135 -138 157 0
-135 -138 -158 42 0
-135 -138 158 -42 0
-136 -137 157 0
-136 -137 -158 42 0
-136 -137 158 -42 0
-137 -140 157 0
-137 -140 -158 43 0
-137 -140 158 -43 0
-138 -139 157 0
-138 -139 -158 43 0
-138 -139 158 -43 0
-139 -142 157 0
-139 -142 -158 44 0
-139 -142 158 -44 0
-140 -141 157 0
-140 -141 -158 44 0
-140 -141 158 -44 0
-141 -144 157 0
-141 -144 -158 45 0
-141 -144 158 -45 0
-142 -143 157 0
-142 -143 -158 45 0
-142 -143 158 -45 0
-143 -146 157 0
-143 -146 -158 46 0
-143 -146 158 -46 0
-144 -145 157 0
-144 -145 -158 46 0
-144 -145 158 -46 0
-145 -148 157 0
-145 -148 -158 47 0
-145 -148 158 -47 0
-146 -147 157 0
-146 -147 -158 47 0
-146 -147 158 -47 0
-147 -150 157 0
-147 -150 -158 48 0
-147 -150 158 -48 0
-148 -149 157 0
-148 -149 -158 48 0
-148 -149 158 -48 0
-149 -152 157 0
-149 -152 -158 49 0
-149 -152 158 -49 0
-150 -151 157 0
-150 -151 -158 49 0
-150 -151 158 -49 0
-151 -154 157 0
-151 -154 -158 50 0
-151 -154 158 -50 0
-152 -153 157 0
-152 -153 -158 50 0
-152 -153 158 -50 0
-153 -156 157 0
-153 -156 -158 51 0
-153 -156 158 -51 0
-154 -155 157 0
-154 -155 -158 51 0
-154 -155 158 -51 0
-155 -54 157 0
-155 -54 -158 52 0
-155 -54 158 -52 0
-156 -53 157 0
-156 -53 -158 52 0
-156 -53 158 -52 0
c X
-160 53 0
-159 53 0
-160 56 0
-159 56 0
-160 1 0
-159 -1 0
160 -53 -56 -1 0
159 -53 -56 1 0
-162 54 0
-161 54 0
-162 55 0
-161 55 0
-162 1 0
-161 -1 0
162 -54 -55 -1 0
161 -54 -55 1 0
-164 55 0
-163 55 0
-164 58 0
-163 58 0
-164 2 0
-163 -2 0
164 -55 -58 -2 0
163 -55 -58 2 0
-166 56 0
-165 56 0
-166 57 0
-165 57 0
-166 2 0
-165 -2 0
166 -56 -57 -2 0
165 -56 -57 2 0
-168 57 0
-167 57 0
-168 60 0
-167 60 0
-168 3 0
-167 -3 0
168 -57 -60 -3 0
167 -57 -60 3 0
-170 58 0
-169 58 0
-170 59 0
-169 59 0
-170 3 0
-169 -3 0
170 -58 -59 -3 0
169 -58 -59 3 0
-172 59 0
-171 59 0
-172 62 0
-171 62 0
-172 4 0
-171 -4 0
172 -59 -62 -4 0
171 -59 -62 4 0
-174 60 0
-173 60 0
-174 61 0
-173 61 0
-174 4 0
-173 -4 0
174 -60 -61 -4 0
173 -60 -61 4 0
-176 61 0
-175 61 0
-176 64 0
-175 64 0
-176 5 0
-175 -5 0
176 -61 -64 -5 0
175 -61 -64 5 0
-178 62 0
-177 62 0
-178 63 0
-177 63 0
-178 5 0
-177 -5 0
178 -62 -63 -5 0
177 -62 -63 5 0
-180 63 0
-179 63 0
-180 66 0
-179 66 0
-180 6 0
-179 -6 0
180 -63 -66 -6 0
179 -63 -66 6 0
-182 64 0
-181 64 0
-182 65 0
-181 65 0
-182 6 0
-181 -6 0
182 -64 -65 -6 0
181 -64 -65 6 0
-184 65 0
-183 65 0
-184 68 0
-183 68 0
-184 7 0
-183 -7 0
184 -65 -68 -7 0
183 -65 -68 7 0
-186 66 0
-185 66 0
-186 67 0
-185 67 0
-186 7 0
-185 -7 0
186 -66 -67 -7 0
185 -66 -67 7 0
-188 67 0
-187 67 0
-188 70 0
-187 70 0
-188 8 0
-187 -8 0
188 -67 -70 -8 0
187 -67 -70 8 0
-190 68 0
-189 68 0
-190 69 0
-189 69 0
-190 8 0
-189 -8 0
190 -68 -69 -8 0
189 -68 -69 8 0
-192 69 0
-191 69 0
-192 72 0
-191 72 0
-192 9 0
-191 -9 0
192 -69 -72 -9 0
191 -69 -72 9 0
-194 70 0
-193 70 0
-194 71 0
-193 71 0
-194 9 0
-193 -9 0
194 -70 -71 -9 0
193 -70 -71 9 0
-196 71 0
-195 71 0
-196 74 0
-195 74 0
-196 10 0
-195 -10 0
196 -71 -74 -10 0
195 -71 -74 10 0
-198 72 0
-197 72 0
-198 73 0
-197 73 0
-198 10 0
-197 -10 0
198 -72 -73 -10 0
197 -72 -73 10 0
-200 73 0
-199 73 0
-200 76 0
-199 76 0
-200 11 0
-199 -11 0
200 -73 -76 -11 0
199 -73 -76 11 0
-202 74 0
-201 74 0
-202 75 0
-201 75 0
-202 11 0
-201 -11 0
202 -74 -75 -11 0
201 -74 -75 11 0
-204 75 0
-203 75 0
-204 78 0
-203 78 0
-204 12 0
-203 -12 0
204 -75 -78 -12 0
203 -75 -78 12 0
-206 76 0
-205 76 0
-206 77 0
-205 77 0
-206 12 0
-205 -12 0
206 -76 -77 -12 0
205 -76 -77 12 0
-208 77 0
-207 77 0
-208 80 0
-207 80 0
-208 13 0
-207 -13 0
208 -77 -80 -13 0
207 -77 -80 13 0
-210 78 0
-209 78 0
-210 79 0
-209 79 0
-210 13 0
-209 -13 0
210 -78 -79 -13 0
209 -78 -79 13 0
-212 79 0
-211 79 0
-212 82 0
-211 82 0
-212 14 0
-211 -14 0
212 -79 -82 -14 0
211 -79 -82 14 0
-214 80 0
-213 80 0
-214 81 0
-213 81 0
-214 14 0
-213 -14 0
214 -80 -81 -14 0
213 -80 -81 14 0
-216 81 0
-215 81 0
-216 84 0
-215 84 0
-216 15 0
-215 -15 0
216 -81 -84 -15 0
215 -81 -84 15 0
-218 82 0
-217 82 0
-218 83 0
-217 83 0
-218 15 0
-217 -15 0
218 -82 -83 -15 0
217 -82 -83 15 0
-220 83 0
-219 83 0
-220 86 0
-219 86 0
-220 16 0
-219 -16 0
220 -83 -86 -16 0
219 -83 -86 16 0
-222 84 0
-221 84 0
-222 85 0
-221 85 0
-222 16 0
-221 -16 0
222 -84 -85 -16 0
221 -84 -85 16 0
-224 85 0
-223 85 0
-224 88 0
-223 88 0
-224 17 0
-223 -17 0
224 -85 -88 -17 0
223 -85 -88 17 0
-226 86 0
-225 86 0
-226 87 0
-225 87 0
-226 17 0
-225 -17 0
226 -86 -87 -17 0
225 -86 -87 17 0
-228 87 0
-227 87 0
-228 90 0
-227 90 0
-228 18 0
-227 -18 0
228 -87 -90 -18 0
227 -87 -90 18 0
-230 88 0
-229 88 0
-230 89 0
-229 89 0
-230 18 0
-229 -18 0
230 -88 -89 -18 0
229 -88 -89 18 0
-232 89 0
-231 89 0
-232 92 0
-231 92 0
-232 19 0
-231 -19 0
232 -89 -92 -19 0
231 -89 -92 19 0
-234 90 0
-233 90 0
-234 91 0
-233 91 0
-234 19 0
-233 -19 0
234 -90 -91 -19 0
233 -90 -91 19 0
-236 91 0
-235 91 0
-236 94 0
-235 94 0
-236 20 0
-235 -20 0
236 -91 -94 -20 0
235 -91 -94 20 0
-238 92 0
-237 92 0
-238 93 0
-237 93 0
-238 20 0
-237 -20 0
238 -92 -93 -20 0
237 -92 -93 20 0
-240 93 0
-239 93 0
-240 96 0
-239 96 0
-240 21 0
-239 -21 0
240 -93 -96 -21 0
239 -93 -96 21 0
-242 94 0
-241 94 0
-242 95 0
-241 95 0
-242 21 0
-241 -21 0
242 -94 -95 -21 0
241 -94 -95 21 0
-244 95 0
-243 95 0
-244 98 0
-243 98 0
-244 22 0
-243 -22 0
244 -95 -98 -22 0
243 -95 -98 22 0
-246 96 0
-245 96 0
-246 97 0
-245 97 0
-246 22 0
-245 -22 0
246 -96 -97 -22 0
245 -96 -97 22 0
-248 97 0
-247 97 0
-248 100 0
-247 100 0
-248 23 0
-247 -23 0
248 -97 -100 -23 0
247 -97 -100 23 0
-250 98 0
-249 98 0
-250 99 0
-249 99 0
-250 23 0
-249 -23 0
250 -98 -99 -23 0
249 -98 -99 23 0
-252 99 0
-251 99 0
-252 102 0
-251 102 0
-252 24 0
-251 -24 0
252 -99 -102 -24 0
251 -99 -102 24 0
-254 100 0
-253 100 0
-254 101 0
-253 101 0
-254 24 0
-253 -24 0
254 -100 -101 -24 0
253 -100 -101 24 0
-256 101 0
-255 101 0
-256 104 0
-255 104 0
-256 25 0
-255 -25 0
256 -101 -104 -25 0
255 -101 -104 25 0
-258 102 0
-257 102 0
-258 103 0
-257 103 0
-258 25 0
-257 -25 0
258 -102 -103 -25 0
257 -102 -103 25 0
-260 103 0
-259 103 0
-260 106 0
-259 106 0
-260 26 0
-259 -26 0
260 -103 -106 -26 0
259 -103 -106 26 0
-262 104 0
-261 104 0
-262 105 0
-261 105 0
-262 26 0
-261 -26 0
262 -104 -105 -26 0
261 -104 -105 26 0
-264 105 0
-263 105 0
-264 108 0
-263 108 0
-264 27 0
-263 -27 0
264 -105 -108 -27 0
263 -105 -108 27 0
-266 106 0
-265 106 0
-266 107 0
-265 107 0
-266 27 0
-265 -27 0
266 -106 -107 -27 0
265 -106 -107 27 0
-268 107 0
-267 107 0
-268 110 0
-267 110 0
-268 28 0
-267 -28 0
268 -107 -110 -28 0
267 -107 -110 28 0
-270 108 0
-269 108 0
-270 109 0
-269 109 0
-270 28 0
-269 -28 0
270 -108 -109 -28 0
269 -108 -109 28 0
-272 109 0
-271 109 0
-272 112 0
-271 112 0
-272 29 0
-271 -29 0
272 -109 -112 -29 0
271 -109 -112 29 0
-274 110 0
-273 110 0
-274 111 0
-273 111 0
-274 29 0
-273 -29 0
274 -110 -111 -29 0
273 -110 -111 29 0
-276 111 0
-275 111 0
-276 114 0
-275 114 0
-276 30 0
-275 -30 0
276 -111 -114 -30 0
275 -111 -114 30 0
-278 112 0
-277 112 0
-278 113 0
-277 113 0
-278 30 0
-277 -30 0
278 -112 -113 -30 0
277 -112 -113 30 0
-280 113 0
-279 113 0
-280 116 0
-279 116 0
-280 31 0
-279 -31 0
280 -113 -116 -31 0
279 -113 -116 31 0
-282 114 0
-281 114 0
-282 115 0
-281 115 0
-282 31 0
-281 -31 0
282 -114 -115 -31 0
281 -114 -115 31 0
-284 115 0
-283 115 0
-284 118 0
-283 118 0
-284 32 0
-283 -32 0
284 -115 -118 -32 0
283 -115 -118 32 0
-286 116 0
-285 116 0
-286 117 0
-285 117 0
-286 32 0
-285 -32 0
286 -116 -117 -32 0
285 -116 -117 32 0
-288 117 0
-287 117 0
-288 120 0
-287 120 0
-288 33 0
-287 -33 0
288 -117 -120 -33 0
287 -117 -120 33 0
-290 118 0
-289 118 0
-290 119 0
-289 119 0
-290 33 0
-289 -33 0
290 -118 -119 -33 0
289 -118 -119 33 0
-292 119 0
-291 119 0
-292 122 0
-291 122 0
-292 34 0
-291 -34 0
292 -119 -122 -34 0
291 -119 -122 34 0
-294 120 0
-293 120 0
-294 121 0
-293 121 0
-294 34 0
-293 -34 0
294 -120 -121 -34 0
293 -120 -121 34 0
-296 121 0
-295 121 0
-296 124 0
-295 124 0
-296 35 0
-295 -35 0
296 -121 -124 -35 0
295 -121 -124 35 0
-298 122 0
-297 122 0
-298 123 0
-297 123 0
-298 35 0
-297 -35 0
298 -122 -123 -35 0
297 -122 -123 35 0
-300 123 0
-299 123 0
-300 126 0
-299 126 0
-300 36 0
-299 -36 0
300 -123 -126 -36 0
299 -123 -126 36 0
-302 124 0
-301 124 0
-302 125 0
-301 125 0
-302 36 0
-301 -36 0
302 -124 -125 -36 0
301 -124 -125 36 0
-304 125 0
-303 125 0
-304 128 0
-303 128 0
-304 37 0
-303 -37 0
304 -125 -128 -37 0
303 -125 -128 37 0
-306 126 0
-305 126 0
-306 127 0
-305 127 0
-306 37 0
-305 -37 0
306 -126 -127 -37 0
305 -126 -127 37 0
-308 127 0
-307 127 0
-308 130 0
-307 130 0
-308 38 0
-307 -38 0
308 -127 -130 -38 0
307 -127 -130 38 0
-310 128 0
-309 128 0
-310 129 0
-309 129 0
-310 38 0
-309 -38 0
310 -128 -129 -38 0
309 -128 -129 38 0
-312 129 0
-311 129 0
-312 132 0
-311 132 0
-312 39 0
-311 -39 0
312 -129 -132 -39 0
311 -129 -132 39 0
-314 130 0
-313 130 0
-314 131 0
-313 131 0
-314 39 0
-313 -39 0
314 -130 -131 -39 0
313 -130 -131 39 0
-316 131 0
-315 131 0
-316 134 0
-315 134 0
-316 40 0
-315 -40 0
316 -131 -134 -40 0
315 -131 -134 40 0
-318 132 0
-317 132 0
-318 133 0
-317 133 0
-318 40 0
-317 -40 0
318 -132 -133 -40 0
317 -132 -133 40 0
-320 133 0
-319 133 0
-320 136 0
-319 136 0
-320 41 0
-319 -41 0
320 -133 -136 -41 0
319 -133 -136 41 0
-322 134 0
-321 134 0
-322 135 0
-321 135 0
-322 41 0
-321 -41 0
322 -134 -135 -41 0
321 -134 -135 41 0
-324 135 0
-323 135 0
-324 138 0
-323 138 0
-324 42 0
-323 -42 0
324 -135 -138 -42 0
323 -135 -138 42 0
-326 136 0
-325 136 0
-326 137 0
-325 137 0
-326 42 0
-325 -42 0
326 -136 -137 -42 0
325 -136 -137 42 0
-328 137 0
-327 137 0
-328 140 0
-327 140 0
-328 43 0
-327 -43 0
328 -137 -140 -43 0
327 -137 -140 43 0
-330 138 0
-329 138 0
-330 139 0
-329 139 0
-330 43 0
-329 -43 0
330 -138 -139 -43 0
329 -138 -139 43 0
-332 139 0
-331 139 0
-332 142 0
-331 142 0
-332 44 0
-331 -44 0
332 -139 -142 -44 0
331 -139 -142 44 0
-334 140 0
-333 140 0
-334 141 0
-333 141 0
-334 44 0
-333 -44 0
334 -140 -141 -44 0
333 -140 -141 44 0
-336 141 0
-335 141 0
-336 144 0
-335 144 0
-336 45 0
-335 -45 0
336 -141 -144 -45 0
335 -141 -144 45 0
-338 142 0
-337 142 0
-338 143 0
-337 143 0
-338 45 0
-337 -45 0
338 -142 -143 -45 0
337 -142 -143 45 0
-340 143 0
-339 143 0
-340 146 0
-339 146 0
-340 46 0
-339 -46 0
340 -143 -146 -46 0
339 -143 -146 46 0
-342 144 0
-341 144 0
-342 145 0
-341 145 0
-342 46 0
-341 -46 0
342 -144 -145 -46 0
341 -144 -145 46 0
-344 145 0
-343 145 0
-344 148 0
-343 148 0
-344 47 0
-343 -47 0
344 -145 -148 -47 0
343 -145 -148 47 0
-346 146 0
-345 146 0
-346 147 0
-345 147 0
-346 47 0
-345 -47 0
346 -146 -147 -47 0
345 -146 -147 47 0
-348 147 0
-347 147 0
-348 150 0
-347 150 0
-348 48 0
-347 -48 0
348 -147 -150 -48 0
347 -147 -150 48 0
-350 148 0
-349 148 0
-350 149 0
-349 149 0
-350 48 0
-349 -48 0
350 -148 -149 -48 0
349 -148 -149 48 0
-352 149 0
-351 149 0
-352 152 0
-351 152 0
-352 49 0
-351 -49 0
352 -149 -152 -49 0
351 -149 -152 49 0
-354 150 0
-353 150 0
-354 151 0
-353 151 0
-354 49 0
-353 -49 0
354 -150 -151 -49 0
353 -150 -151 49 0
-356 151 0
-355 151 0
-356 154 0
-355 154 0
-356 50 0
-355 -50 0
356 -151 -154 -50 0
355 -151 -154 50 0
-358 152 0
-357 152 0
-358 153 0
-357 153 0
-358 50 0
-357 -50 0
358 -152 -153 -50 0
357 -152 -153 50 0
-360 153 0
-359 153 0
-360 156 0
-359 156 0
-360 51 0
-359 -51 0
360 -153 -156 -51 0
359 -153 -156 51 0
-362 154 0
-361 154 0
-362 155 0
-361 155 0
-362 51 0
-361 -51 0
362 -154 -155 -51 0
361 -154 -155 51 0
-364 155 0
-363 155 0
-364 54 0
-363 54 0
-364 52 0
-363 -52 0
364 -155 -54 -52 0
363 -155 -54 52 0
-366 156 0
-365 156 0
-366 53 0
-365 53 0
-366 52 0
-365 -52 0
366 -156 -53 -52 0
365 -156 -53 52 0
c x suite
-157 -158 160 162 164 166 168 170 172 174 176 178 180 182 184 186 188 190 192 194 196 198 200 202 204 206 208 210 212 214 216 218 220 222 224 226 228 230 232 234 236 238 240 242 244 246 248 250 252 254 256 258 260 262 264 266 268 270 272 274 276 278 280 282 284 286 288 290 292 294 296 298 300 302 304 306 308 310 312 314 316 318 320 322 324 326 328 330 332 334 336 338 340 342 344 346 348 350 352 354 356 358 360 362 364 366 0
-157 158 159 161 163 165 167 169 171 173 175 177 179 181 183 185 187 189 191 193 195 197 199 201 203 205 207 209 211 213 215 217 219 221 223 225 227 229 231 233 235 237 239 241 243 245 247 249 251 253 255 257 259 261 263 265 267 269 271 273 275 277 279 281 283 285 287 289 291 293 295 297 299 301 303 305 307 309 311 313 315 317 319 321 323 325 327 329 331 333 335 337 339 341 343 345 347 349 351 353 355 357 359 361 363 365 0
c proper colo
-53 -55 0
-54 -56 0
-55 -57 0
-56 -58 0
-57 -59 0
-58 -60 0
-59 -61 0
-60 -62 0
-61 -63 0
-62 -64 0
-63 -65 0
-64 -66 0
-65 -67 0
-66 -68 0
-67 -69 0
-68 -70 0
-69 -71 0
-70 -72 0
-71 -73 0
-72 -74 0
-73 -75 0
-74 -76 0
-75 -77 0
-76 -78 0
-77 -79 0
-78 -80 0
-79 -81 0
-80 -82 0
-81 -83 0
-82 -84 0
-83 -85 0
-84 -86 0
-85 -87 0
-86 -88 0
-87 -89 0
-88 -90 0
-89 -91 0
-90 -92 0
-91 -93 0
-92 -94 0
-93 -95 0
-94 -96 0
-95 -97 0
-96 -98 0
-97 -99 0
-98 -100 0
-99 -101 0
-100 -102 0
-101 -103 0
-102 -104 0
-103 -105 0
-104 -106 0
-105 -107 0
-106 -108 0
-107 -109 0
-108 -110 0
-109 -111 0
-110 -112 0
-111 -113 0
-112 -114 0
-113 -115 0
-114 -116 0
-115 -117 0
-116 -118 0
-117 -119 0
-118 -120 0
-119 -121 0
-120 -122 0
-121 -123 0
-122 -124 0
-123 -125 0
-124 -126 0
-125 -127 0
-126 -128 0
-127 -129 0
-128 -130 0
-129 -131 0
-130 -132 0
-131 -133 0
-132 -134 0
-133 -135 0
-134 -136 0
-135 -137 0
-136 -138 0
-137 -139 0
-138 -140 0
-139 -141 0
-140 -142 0
-141 -143 0
-142 -144 0
-143 -145 0
-144 -146 0
-145 -147 0
-146 -148 0
-147 -149 0
-148 -150 0
-149 -151 0
-150 -152 0
-151 -153 0
-152 -154 0
-153 -155 0
-154 -156 0
-155 -53 0
-156 -54 0
157 0
